300
200
160
160
160
160
159
159
159
159
158
158
158
157
157
157
157
156
156
156
155
155
155
155
155
154
154
154
153
153
153
152
151
151
151
151
150
150
150
149
149
149
148
147
147
146
145
145
144
144
144
144
144
144
143
143
143
143
142
142
142
141
141
141
141
138
138
138
137
137
136
136
136
136
135
135
134
134
133
133
132
132
131
130
130
130
129
129
128
128
128
127
127
126
125
125
125
125
124
124
124
124
124
123
123
122
121
121
120
117
116
116
116
115
114
114
114
114
113
112
112
112
111
111
111
111
110
109
108
108
108
108
107
106
106
105
105
105
104
102
102
102
102
102
101
101
100
99
99
99
98
98
97
96
96
95
95
95
95
94
93
93
92
92
90
90
90
89
89
88
88
88
88
87
87
86
86
85
85
85
85
84
84
84
83
83
82
82
82
82
81
81
80
80
79
79
79
78
78
78
77
77
77
76
76
75
75
75
75
75
75
75
74
73
73
71
71
71
71
71
71
71
70
70
69
69
69
69
68
68
68
66
66
65
65
65
65
64
64
64
63
63
63
63
63
63
63
62
62
62
61
61
60
60
60
60
58
58
56
56
56
55
54
54
53
52
52
52
52
50
50
49
49
49
47
47
47
47
46
46
46
46
46
46
45
45
45
44
44
44
44
43
43
43
43
42
42
42
41
41
40
40
